proyfinal/src/viki/013/experimentInOfficeAgust.take6.output/a6f57217-71ad-4b8a-b457-75634c22b7b9.als.out
Reading from standard input... Use '--help' for help.
============================[ Problem Statistics ]=============================
|                                                                             |
|  Number of variables:         87638                                         |
|  Number of clauses:          161767                                         |
|  Parse time:                   0.04 s                                       |
|                                                                             |
============================[ Search Statistics ]==============================
| Conflicts |          ORIGINAL         |          LEARNT          | Progress |
|           |    Vars  Clauses Literals |    Limit  Clauses Lit/Cl |          |
===============================================================================
|       100 |   63837   110425   275910 |    40489      100     19 | 27.158 % |
|       250 |   63811   110317   275663 |    44538      248     34 | 27.188 % |
|       475 |   63811   110317   275663 |    48991      473    154 | 27.188 % |
|       812 |   63762   110243   275492 |    53891      807    150 | 27.244 % |
|      1318 |   63761   110074   275103 |    59280     1304    119 | 27.245 % |
|      2077 |   63761   110074   275103 |    65208     2063    101 | 27.245 % |
|      3216 |   63761   110074   275103 |    71729     3202    140 | 27.245 % |
|      4924 |   63744   110009   274927 |    78901     4734    126 | 27.264 % |
|      7486 |   63696   109891   274653 |    86792     7293    125 | 27.319 % |
|     11330 |   63565   109359   273364 |    95471    11040    120 | 27.469 % |
|     17096 |   63482   109009   272564 |   105018    15969    114 | 27.563 % |
===============================================================================
restarts              : 63
conflicts             : 18946          (5507 /sec)
decisions             : 69863          (0.00 % random) (20307 /sec)
propagations          : 29230497       (8496235 /sec)
conflict literals     : 2191696        (47.53 % deleted)
Memory used           : 40.01 MB
CPU time              : 3.44041 s

INDETERMINATE
